n= 20; m= 6;



75	58	31	29	47	2	54	49	9	69	10	40	44	32	66	12	50	33	69	24
25	30	54	50	11	32	59	57	24	86	88	52	10	60	25	63	87	75	62	68
24	48	42	53	16	58	84	26	65	73	70	42	56	50	37	73	62	62	62	29
57	49	69	6	2	84	12	77	54	15	69	38	7	23	52	33	40	63	38	26
25	69	54	64	42	51	48	5	67	72	63	60	14	44	37	59	75	3	44	4
24	48	42	53	16	58	84	26	65	73	70	42	56	50	37	73	62	62	62	29



